(set-logic UF)
(declare-sort Set 0)
(declare-sort Elem 0)
(declare-fun member (Elem Set) Bool)
(declare-fun subset (Set Set) Bool)
(declare-fun seteq (Set Set) Bool)
(declare-fun union (Set Set) Set)
(declare-fun intersection (Set Set) Set)
(declare-fun difference (Set Set) Set)
(declare-fun a () Set)
(declare-fun b () Set)
(assert (not (=> (forall ((?x Elem) (?s1 Set) (?s2 Set)) (= (and (member ?x ?s1) (not (member ?x ?s2))) (member ?x (difference ?s1 ?s2)))) (= (and (member (choice ((?x Elem)) (not (or (not (member ?x (difference a (difference a b)))) (member ?x (intersection a b))))) a) (not (member (choice ((?x Elem)) (not (or (not (member ?x (difference a (difference a b)))) (member ?x (intersection a b))))) b))) (member (choice ((?x Elem)) (not (or (not (member ?x (difference a (difference a b)))) (member ?x (intersection a b))))) (difference a b))))))
(assert (or (=> (forall ((?x Elem) (?s1 Set) (?s2 Set)) (= (and (member ?x ?s1) (not (member ?x ?s2))) (member ?x (difference ?s1 ?s2)))) (= (and (member (choice ((?x Elem)) (not (or (not (member ?x (difference a (difference a b)))) (member ?x (intersection a b))))) a) (not (member (choice ((?x Elem)) (not (or (not (member ?x (difference a (difference a b)))) (member ?x (intersection a b))))) b))) (member (choice ((?x Elem)) (not (or (not (member ?x (difference a (difference a b)))) (member ?x (intersection a b))))) (difference a b)))) (=> (forall ((?x Elem) (?s1 Set) (?s2 Set)) (= (and (member ?x ?s1) (not (member ?x ?s2))) (member ?x (difference ?s1 ?s2)))) (= (and (member (choice ((?x Elem)) (not (or (not (member ?x (difference a (difference a b)))) (member ?x (intersection a b))))) a) (not (member (choice ((?x Elem)) (not (or (not (member ?x (difference a (difference a b)))) (member ?x (intersection a b))))) b))) (member (choice ((?x Elem)) (not (or (not (member ?x (difference a (difference a b)))) (member ?x (intersection a b))))) (difference a b))))))
(check-sat)
(exit)
